3 3 2
20 2 32 1 183 2 50 0 23 1 56 2 6 1 125 0 33 2 183 0 180 2 113 1 98 0 53 2 88 1 81 0 26 2 71 1 141 2 168 1 4 
20 0 123 2 41 1 163 0 186 2 189 1 122 0 108 1 1 2 127 1 160 0 61 1 82 0 182 2 171 0 47 2 146 1 43 0 188 2 61 0 45 
20 2 5 0 15 2 70 0 47 2 80 1 16 0 59 1 53 2 8 1 52 0 168 2 1 0 18 1 72 0 152 1 109 0 144 2 31 1 193 2 68 

-------------
